seed= 2052018 ;
N= 14 ;
M= 2 ;
F= 2 ;
K= 4 ;
T= 12 ;

p=[ 2 2 2 2 2 2 2 2 2 2 2 2 2 2 ];
r=[ 1 1 3 0 3 2 2 0 1 2 1 3 3 1 ];
d=[ 2 4 2 2 3 3 0 2 4 5 3 5 5 0 ];
s=[ 1 1 1 1 1 1 1 1 1 1 1 1 1 1 ];
w=[ 4 1 1 2 2 5 2 1 3 4 5 1 2 5 ];
f=[ 1 1 1 1 1 1 1 2 2 2 2 2 2 2 ];

e1=[ 10 10 10 10 10 10 8 8 8 8 8 8 ];
e2=[ 10 10 10 10 9 9 8 8 8 8 9 9 ];